(set-logic QF_LRA)
(declare-fun T1 () Real )
(declare-fun T2 () Real )
(declare-fun T3 () Real )
(declare-fun T4 () Real )
(declare-fun T5 () Real )
(declare-fun T6 () Real )
(declare-fun T7 () Real )
(declare-fun T8 () Real )
(declare-fun T9 () Real )
(declare-fun T10 () Real )
(declare-fun Z () Real )
(declare-fun k () Real )
(assert (let
(( $goal (>= Z k) ))
(let
((
$phi ( and 
(or ( <= ( + T1 17 ) T2 ) ( <= ( + T2 77 ) T1 ) )
(or ( <= ( + T1 75 )  ( + T2 77 ) ) ( <= ( + T2 93 )( + T1 17 ) ) )
(or ( <= ( + T1 130 )  ( + T2 93 ) ) ( <= ( + T2 178 )( + T1 75 ) ) )
(or ( <= ( + T1 173 )  ( + T2 178 ) ) ( <= ( + T2 213 )( + T1 130 ) ) )
(or ( <= ( + T1 266 )  ( + T2 213 ) ) ( <= ( + T2 277 )( + T1 173 ) ) )
(or ( <= ( + T1 327 )  ( + T2 277 ) ) ( <= ( + T2 298 )( + T1 266 ) ) )
(or ( <= ( + T1 359 )  ( + T2 298 ) ) ( <= ( + T2 311 )( + T1 327 ) ) )
(or ( <= ( + T1 412 )  ( + T2 311 ) ) ( <= ( + T2 383 )( + T1 359 ) ) )
(or ( <= ( + T1 415 )  ( + T2 383 ) ) ( <= ( + T2 440 )( + T1 412 ) ) )
(or ( <= ( + T1 473 )  ( + T2 440 ) ) ( <= ( + T2 459 )( + T1 415 ) ) )
(or ( <= ( + T1 570 )  ( + T2 459 ) ) ( <= ( + T2 496 )( + T1 473 ) ) )
(or ( <= ( + T1 594 )  ( + T2 496 ) ) ( <= ( + T2 534 )( + T1 570 ) ) )
(or ( <= ( + T1 17 ) T3 ) ( <= ( + T3 44 ) T1 ) )
(or ( <= ( + T1 75 )  ( + T3 44 ) ) ( <= ( + T3 46 )( + T1 17 ) ) )
(or ( <= ( + T1 130 )  ( + T3 46 ) ) ( <= ( + T3 58 )( + T1 75 ) ) )
(or ( <= ( + T1 173 )  ( + T3 58 ) ) ( <= ( + T3 82 )( + T1 130 ) ) )
(or ( <= ( + T1 266 )  ( + T3 82 ) ) ( <= ( + T3 154 )( + T1 173 ) ) )
(or ( <= ( + T1 327 )  ( + T3 154 ) ) ( <= ( + T3 182 )( + T1 266 ) ) )
(or ( <= ( + T1 359 )  ( + T3 182 ) ) ( <= ( + T3 265 )( + T1 327 ) ) )
(or ( <= ( + T1 412 )  ( + T3 265 ) ) ( <= ( + T3 305 )( + T1 359 ) ) )
(or ( <= ( + T1 415 )  ( + T3 305 ) ) ( <= ( + T3 343 )( + T1 412 ) ) )
(or ( <= ( + T1 473 )  ( + T3 343 ) ) ( <= ( + T3 380 )( + T1 415 ) ) )
(or ( <= ( + T1 570 )  ( + T3 380 ) ) ( <= ( + T3 463 )( + T1 473 ) ) )
(or ( <= ( + T1 594 )  ( + T3 463 ) ) ( <= ( + T3 493 )( + T1 570 ) ) )
(or ( <= ( + T1 17 ) T4 ) ( <= ( + T4 49 ) T1 ) )
(or ( <= ( + T1 75 )  ( + T4 49 ) ) ( <= ( + T4 63 )( + T1 17 ) ) )
(or ( <= ( + T1 130 )  ( + T4 63 ) ) ( <= ( + T4 145 )( + T1 75 ) ) )
(or ( <= ( + T1 173 )  ( + T4 145 ) ) ( <= ( + T4 149 )( + T1 130 ) ) )
(or ( <= ( + T1 266 )  ( + T4 149 ) ) ( <= ( + T4 220 )( + T1 173 ) ) )
(or ( <= ( + T1 327 )  ( + T4 220 ) ) ( <= ( + T4 250 )( + T1 266 ) ) )
(or ( <= ( + T1 359 )  ( + T4 250 ) ) ( <= ( + T4 277 )( + T1 327 ) ) )
(or ( <= ( + T1 412 )  ( + T4 277 ) ) ( <= ( + T4 377 )( + T1 359 ) ) )
(or ( <= ( + T1 415 )  ( + T4 377 ) ) ( <= ( + T4 422 )( + T1 412 ) ) )
(or ( <= ( + T1 473 )  ( + T4 422 ) ) ( <= ( + T4 485 )( + T1 415 ) ) )
(or ( <= ( + T1 570 )  ( + T4 485 ) ) ( <= ( + T4 519 )( + T1 473 ) ) )
(or ( <= ( + T1 594 )  ( + T4 519 ) ) ( <= ( + T4 579 )( + T1 570 ) ) )
(or ( <= ( + T1 17 ) T5 ) ( <= ( + T5 35 ) T1 ) )
(or ( <= ( + T1 75 )  ( + T5 35 ) ) ( <= ( + T5 133 )( + T1 17 ) ) )
(or ( <= ( + T1 130 )  ( + T5 133 ) ) ( <= ( + T5 216 )( + T1 75 ) ) )
(or ( <= ( + T1 173 )  ( + T5 216 ) ) ( <= ( + T5 307 )( + T1 130 ) ) )
(or ( <= ( + T1 266 )  ( + T5 307 ) ) ( <= ( + T5 323 )( + T1 173 ) ) )
(or ( <= ( + T1 327 )  ( + T5 323 ) ) ( <= ( + T5 343 )( + T1 266 ) ) )
(or ( <= ( + T1 359 )  ( + T5 343 ) ) ( <= ( + T5 423 )( + T1 327 ) ) )
(or ( <= ( + T1 412 )  ( + T5 423 ) ) ( <= ( + T5 435 )( + T1 359 ) ) )
(or ( <= ( + T1 415 )  ( + T5 435 ) ) ( <= ( + T5 508 )( + T1 412 ) ) )
(or ( <= ( + T1 473 )  ( + T5 508 ) ) ( <= ( + T5 599 )( + T1 415 ) ) )
(or ( <= ( + T1 570 )  ( + T5 599 ) ) ( <= ( + T5 634 )( + T1 473 ) ) )
(or ( <= ( + T1 594 )  ( + T5 634 ) ) ( <= ( + T5 678 )( + T1 570 ) ) )
(or ( <= ( + T1 17 ) T6 ) ( <= ( + T6 71 ) T1 ) )
(or ( <= ( + T1 75 )  ( + T6 71 ) ) ( <= ( + T6 88 )( + T1 17 ) ) )
(or ( <= ( + T1 130 )  ( + T6 88 ) ) ( <= ( + T6 171 )( + T1 75 ) ) )
(or ( <= ( + T1 173 )  ( + T6 171 ) ) ( <= ( + T6 179 )( + T1 130 ) ) )
(or ( <= ( + T1 266 )  ( + T6 179 ) ) ( <= ( + T6 185 )( + T1 173 ) ) )
(or ( <= ( + T1 327 )  ( + T6 185 ) ) ( <= ( + T6 202 )( + T1 266 ) ) )
(or ( <= ( + T1 359 )  ( + T6 202 ) ) ( <= ( + T6 291 )( + T1 327 ) ) )
(or ( <= ( + T1 412 )  ( + T6 291 ) ) ( <= ( + T6 297 )( + T1 359 ) ) )
(or ( <= ( + T1 415 )  ( + T6 297 ) ) ( <= ( + T6 327 )( + T1 412 ) ) )
(or ( <= ( + T1 473 )  ( + T6 327 ) ) ( <= ( + T6 349 )( + T1 415 ) ) )
(or ( <= ( + T1 570 )  ( + T6 349 ) ) ( <= ( + T6 358 )( + T1 473 ) ) )
(or ( <= ( + T1 594 )  ( + T6 358 ) ) ( <= ( + T6 411 )( + T1 570 ) ) )
(or ( <= ( + T1 17 ) T7 ) ( <= ( + T7 51 ) T1 ) )
(or ( <= ( + T1 75 )  ( + T7 51 ) ) ( <= ( + T7 139 )( + T1 17 ) ) )
(or ( <= ( + T1 130 )  ( + T7 139 ) ) ( <= ( + T7 143 )( + T1 75 ) ) )
(or ( <= ( + T1 173 )  ( + T7 143 ) ) ( <= ( + T7 190 )( + T1 130 ) ) )
(or ( <= ( + T1 266 )  ( + T7 190 ) ) ( <= ( + T7 240 )( + T1 173 ) ) )
(or ( <= ( + T1 327 )  ( + T7 240 ) ) ( <= ( + T7 329 )( + T1 266 ) ) )
(or ( <= ( + T1 359 )  ( + T7 329 ) ) ( <= ( + T7 335 )( + T1 327 ) ) )
(or ( <= ( + T1 412 )  ( + T7 335 ) ) ( <= ( + T7 372 )( + T1 359 ) ) )
(or ( <= ( + T1 415 )  ( + T7 372 ) ) ( <= ( + T7 458 )( + T1 412 ) ) )
(or ( <= ( + T1 473 )  ( + T7 458 ) ) ( <= ( + T7 499 )( + T1 415 ) ) )
(or ( <= ( + T1 570 )  ( + T7 499 ) ) ( <= ( + T7 526 )( + T1 473 ) ) )
(or ( <= ( + T1 594 )  ( + T7 526 ) ) ( <= ( + T7 579 )( + T1 570 ) ) )
(or ( <= ( + T1 17 ) T8 ) ( <= ( + T8 60 ) T1 ) )
(or ( <= ( + T1 75 )  ( + T8 60 ) ) ( <= ( + T8 67 )( + T1 17 ) ) )
(or ( <= ( + T1 130 )  ( + T8 67 ) ) ( <= ( + T8 131 )( + T1 75 ) ) )
(or ( <= ( + T1 173 )  ( + T8 131 ) ) ( <= ( + T8 163 )( + T1 130 ) ) )
(or ( <= ( + T1 266 )  ( + T8 163 ) ) ( <= ( + T8 260 )( + T1 173 ) ) )
(or ( <= ( + T1 327 )  ( + T8 260 ) ) ( <= ( + T8 359 )( + T1 266 ) ) )
(or ( <= ( + T1 359 )  ( + T8 359 ) ) ( <= ( + T8 386 )( + T1 327 ) ) )
(or ( <= ( + T1 412 )  ( + T8 386 ) ) ( <= ( + T8 453 )( + T1 359 ) ) )
(or ( <= ( + T1 415 )  ( + T8 453 ) ) ( <= ( + T8 520 )( + T1 412 ) ) )
(or ( <= ( + T1 473 )  ( + T8 520 ) ) ( <= ( + T8 529 )( + T1 415 ) ) )
(or ( <= ( + T1 570 )  ( + T8 529 ) ) ( <= ( + T8 603 )( + T1 473 ) ) )
(or ( <= ( + T1 594 )  ( + T8 603 ) ) ( <= ( + T8 627 )( + T1 570 ) ) )
(or ( <= ( + T1 17 ) T9 ) ( <= ( + T9 78 ) T1 ) )
(or ( <= ( + T1 75 )  ( + T9 78 ) ) ( <= ( + T9 92 )( + T1 17 ) ) )
(or ( <= ( + T1 130 )  ( + T9 92 ) ) ( <= ( + T9 122 )( + T1 75 ) ) )
(or ( <= ( + T1 173 )  ( + T9 122 ) ) ( <= ( + T9 129 )( + T1 130 ) ) )
(or ( <= ( + T1 266 )  ( + T9 129 ) ) ( <= ( + T9 164 )( + T1 173 ) ) )
(or ( <= ( + T1 327 )  ( + T9 164 ) ) ( <= ( + T9 254 )( + T1 266 ) ) )
(or ( <= ( + T1 359 )  ( + T9 254 ) ) ( <= ( + T9 265 )( + T1 327 ) ) )
(or ( <= ( + T1 412 )  ( + T9 265 ) ) ( <= ( + T9 350 )( + T1 359 ) ) )
(or ( <= ( + T1 415 )  ( + T9 350 ) ) ( <= ( + T9 427 )( + T1 412 ) ) )
(or ( <= ( + T1 473 )  ( + T9 427 ) ) ( <= ( + T9 441 )( + T1 415 ) ) )
(or ( <= ( + T1 570 )  ( + T9 441 ) ) ( <= ( + T9 472 )( + T1 473 ) ) )
(or ( <= ( + T1 594 )  ( + T9 472 ) ) ( <= ( + T9 551 )( + T1 570 ) ) )
(or ( <= ( + T1 17 ) T10 ) ( <= ( + T10 2 ) T1 ) )
(or ( <= ( + T1 75 )  ( + T10 2 ) ) ( <= ( + T10 91 )( + T1 17 ) ) )
(or ( <= ( + T1 130 )  ( + T10 91 ) ) ( <= ( + T10 106 )( + T1 75 ) ) )
(or ( <= ( + T1 173 )  ( + T10 106 ) ) ( <= ( + T10 145 )( + T1 130 ) ) )
(or ( <= ( + T1 266 )  ( + T10 145 ) ) ( <= ( + T10 174 )( + T1 173 ) ) )
(or ( <= ( + T1 327 )  ( + T10 174 ) ) ( <= ( + T10 267 )( + T1 266 ) ) )
(or ( <= ( + T1 359 )  ( + T10 267 ) ) ( <= ( + T10 359 )( + T1 327 ) ) )
(or ( <= ( + T1 412 )  ( + T10 359 ) ) ( <= ( + T10 399 )( + T1 359 ) ) )
(or ( <= ( + T1 415 )  ( + T10 399 ) ) ( <= ( + T10 498 )( + T1 412 ) ) )
(or ( <= ( + T1 473 )  ( + T10 498 ) ) ( <= ( + T10 553 )( + T1 415 ) ) )
(or ( <= ( + T1 570 )  ( + T10 553 ) ) ( <= ( + T10 576 )( + T1 473 ) ) )
(or ( <= ( + T1 594 )  ( + T10 576 ) ) ( <= ( + T10 624 )( + T1 570 ) ) )
(or ( <= ( + T2 77 ) T3 ) ( <= ( + T3 44 ) T2 ) )
(or ( <= ( + T2 93 )  ( + T3 44 ) ) ( <= ( + T3 46 )( + T2 77 ) ) )
(or ( <= ( + T2 178 )  ( + T3 46 ) ) ( <= ( + T3 58 )( + T2 93 ) ) )
(or ( <= ( + T2 213 )  ( + T3 58 ) ) ( <= ( + T3 82 )( + T2 178 ) ) )
(or ( <= ( + T2 277 )  ( + T3 82 ) ) ( <= ( + T3 154 )( + T2 213 ) ) )
(or ( <= ( + T2 298 )  ( + T3 154 ) ) ( <= ( + T3 182 )( + T2 277 ) ) )
(or ( <= ( + T2 311 )  ( + T3 182 ) ) ( <= ( + T3 265 )( + T2 298 ) ) )
(or ( <= ( + T2 383 )  ( + T3 265 ) ) ( <= ( + T3 305 )( + T2 311 ) ) )
(or ( <= ( + T2 440 )  ( + T3 305 ) ) ( <= ( + T3 343 )( + T2 383 ) ) )
(or ( <= ( + T2 459 )  ( + T3 343 ) ) ( <= ( + T3 380 )( + T2 440 ) ) )
(or ( <= ( + T2 496 )  ( + T3 380 ) ) ( <= ( + T3 463 )( + T2 459 ) ) )
(or ( <= ( + T2 534 )  ( + T3 463 ) ) ( <= ( + T3 493 )( + T2 496 ) ) )
(or ( <= ( + T2 77 ) T4 ) ( <= ( + T4 49 ) T2 ) )
(or ( <= ( + T2 93 )  ( + T4 49 ) ) ( <= ( + T4 63 )( + T2 77 ) ) )
(or ( <= ( + T2 178 )  ( + T4 63 ) ) ( <= ( + T4 145 )( + T2 93 ) ) )
(or ( <= ( + T2 213 )  ( + T4 145 ) ) ( <= ( + T4 149 )( + T2 178 ) ) )
(or ( <= ( + T2 277 )  ( + T4 149 ) ) ( <= ( + T4 220 )( + T2 213 ) ) )
(or ( <= ( + T2 298 )  ( + T4 220 ) ) ( <= ( + T4 250 )( + T2 277 ) ) )
(or ( <= ( + T2 311 )  ( + T4 250 ) ) ( <= ( + T4 277 )( + T2 298 ) ) )
(or ( <= ( + T2 383 )  ( + T4 277 ) ) ( <= ( + T4 377 )( + T2 311 ) ) )
(or ( <= ( + T2 440 )  ( + T4 377 ) ) ( <= ( + T4 422 )( + T2 383 ) ) )
(or ( <= ( + T2 459 )  ( + T4 422 ) ) ( <= ( + T4 485 )( + T2 440 ) ) )
(or ( <= ( + T2 496 )  ( + T4 485 ) ) ( <= ( + T4 519 )( + T2 459 ) ) )
(or ( <= ( + T2 534 )  ( + T4 519 ) ) ( <= ( + T4 579 )( + T2 496 ) ) )
(or ( <= ( + T2 77 ) T5 ) ( <= ( + T5 35 ) T2 ) )
(or ( <= ( + T2 93 )  ( + T5 35 ) ) ( <= ( + T5 133 )( + T2 77 ) ) )
(or ( <= ( + T2 178 )  ( + T5 133 ) ) ( <= ( + T5 216 )( + T2 93 ) ) )
(or ( <= ( + T2 213 )  ( + T5 216 ) ) ( <= ( + T5 307 )( + T2 178 ) ) )
(or ( <= ( + T2 277 )  ( + T5 307 ) ) ( <= ( + T5 323 )( + T2 213 ) ) )
(or ( <= ( + T2 298 )  ( + T5 323 ) ) ( <= ( + T5 343 )( + T2 277 ) ) )
(or ( <= ( + T2 311 )  ( + T5 343 ) ) ( <= ( + T5 423 )( + T2 298 ) ) )
(or ( <= ( + T2 383 )  ( + T5 423 ) ) ( <= ( + T5 435 )( + T2 311 ) ) )
(or ( <= ( + T2 440 )  ( + T5 435 ) ) ( <= ( + T5 508 )( + T2 383 ) ) )
(or ( <= ( + T2 459 )  ( + T5 508 ) ) ( <= ( + T5 599 )( + T2 440 ) ) )
(or ( <= ( + T2 496 )  ( + T5 599 ) ) ( <= ( + T5 634 )( + T2 459 ) ) )
(or ( <= ( + T2 534 )  ( + T5 634 ) ) ( <= ( + T5 678 )( + T2 496 ) ) )
(or ( <= ( + T2 77 ) T6 ) ( <= ( + T6 71 ) T2 ) )
(or ( <= ( + T2 93 )  ( + T6 71 ) ) ( <= ( + T6 88 )( + T2 77 ) ) )
(or ( <= ( + T2 178 )  ( + T6 88 ) ) ( <= ( + T6 171 )( + T2 93 ) ) )
(or ( <= ( + T2 213 )  ( + T6 171 ) ) ( <= ( + T6 179 )( + T2 178 ) ) )
(or ( <= ( + T2 277 )  ( + T6 179 ) ) ( <= ( + T6 185 )( + T2 213 ) ) )
(or ( <= ( + T2 298 )  ( + T6 185 ) ) ( <= ( + T6 202 )( + T2 277 ) ) )
(or ( <= ( + T2 311 )  ( + T6 202 ) ) ( <= ( + T6 291 )( + T2 298 ) ) )
(or ( <= ( + T2 383 )  ( + T6 291 ) ) ( <= ( + T6 297 )( + T2 311 ) ) )
(or ( <= ( + T2 440 )  ( + T6 297 ) ) ( <= ( + T6 327 )( + T2 383 ) ) )
(or ( <= ( + T2 459 )  ( + T6 327 ) ) ( <= ( + T6 349 )( + T2 440 ) ) )
(or ( <= ( + T2 496 )  ( + T6 349 ) ) ( <= ( + T6 358 )( + T2 459 ) ) )
(or ( <= ( + T2 534 )  ( + T6 358 ) ) ( <= ( + T6 411 )( + T2 496 ) ) )
(or ( <= ( + T2 77 ) T7 ) ( <= ( + T7 51 ) T2 ) )
(or ( <= ( + T2 93 )  ( + T7 51 ) ) ( <= ( + T7 139 )( + T2 77 ) ) )
(or ( <= ( + T2 178 )  ( + T7 139 ) ) ( <= ( + T7 143 )( + T2 93 ) ) )
(or ( <= ( + T2 213 )  ( + T7 143 ) ) ( <= ( + T7 190 )( + T2 178 ) ) )
(or ( <= ( + T2 277 )  ( + T7 190 ) ) ( <= ( + T7 240 )( + T2 213 ) ) )
(or ( <= ( + T2 298 )  ( + T7 240 ) ) ( <= ( + T7 329 )( + T2 277 ) ) )
(or ( <= ( + T2 311 )  ( + T7 329 ) ) ( <= ( + T7 335 )( + T2 298 ) ) )
(or ( <= ( + T2 383 )  ( + T7 335 ) ) ( <= ( + T7 372 )( + T2 311 ) ) )
(or ( <= ( + T2 440 )  ( + T7 372 ) ) ( <= ( + T7 458 )( + T2 383 ) ) )
(or ( <= ( + T2 459 )  ( + T7 458 ) ) ( <= ( + T7 499 )( + T2 440 ) ) )
(or ( <= ( + T2 496 )  ( + T7 499 ) ) ( <= ( + T7 526 )( + T2 459 ) ) )
(or ( <= ( + T2 534 )  ( + T7 526 ) ) ( <= ( + T7 579 )( + T2 496 ) ) )
(or ( <= ( + T2 77 ) T8 ) ( <= ( + T8 60 ) T2 ) )
(or ( <= ( + T2 93 )  ( + T8 60 ) ) ( <= ( + T8 67 )( + T2 77 ) ) )
(or ( <= ( + T2 178 )  ( + T8 67 ) ) ( <= ( + T8 131 )( + T2 93 ) ) )
(or ( <= ( + T2 213 )  ( + T8 131 ) ) ( <= ( + T8 163 )( + T2 178 ) ) )
(or ( <= ( + T2 277 )  ( + T8 163 ) ) ( <= ( + T8 260 )( + T2 213 ) ) )
(or ( <= ( + T2 298 )  ( + T8 260 ) ) ( <= ( + T8 359 )( + T2 277 ) ) )
(or ( <= ( + T2 311 )  ( + T8 359 ) ) ( <= ( + T8 386 )( + T2 298 ) ) )
(or ( <= ( + T2 383 )  ( + T8 386 ) ) ( <= ( + T8 453 )( + T2 311 ) ) )
(or ( <= ( + T2 440 )  ( + T8 453 ) ) ( <= ( + T8 520 )( + T2 383 ) ) )
(or ( <= ( + T2 459 )  ( + T8 520 ) ) ( <= ( + T8 529 )( + T2 440 ) ) )
(or ( <= ( + T2 496 )  ( + T8 529 ) ) ( <= ( + T8 603 )( + T2 459 ) ) )
(or ( <= ( + T2 534 )  ( + T8 603 ) ) ( <= ( + T8 627 )( + T2 496 ) ) )
(or ( <= ( + T2 77 ) T9 ) ( <= ( + T9 78 ) T2 ) )
(or ( <= ( + T2 93 )  ( + T9 78 ) ) ( <= ( + T9 92 )( + T2 77 ) ) )
(or ( <= ( + T2 178 )  ( + T9 92 ) ) ( <= ( + T9 122 )( + T2 93 ) ) )
(or ( <= ( + T2 213 )  ( + T9 122 ) ) ( <= ( + T9 129 )( + T2 178 ) ) )
(or ( <= ( + T2 277 )  ( + T9 129 ) ) ( <= ( + T9 164 )( + T2 213 ) ) )
(or ( <= ( + T2 298 )  ( + T9 164 ) ) ( <= ( + T9 254 )( + T2 277 ) ) )
(or ( <= ( + T2 311 )  ( + T9 254 ) ) ( <= ( + T9 265 )( + T2 298 ) ) )
(or ( <= ( + T2 383 )  ( + T9 265 ) ) ( <= ( + T9 350 )( + T2 311 ) ) )
(or ( <= ( + T2 440 )  ( + T9 350 ) ) ( <= ( + T9 427 )( + T2 383 ) ) )
(or ( <= ( + T2 459 )  ( + T9 427 ) ) ( <= ( + T9 441 )( + T2 440 ) ) )
(or ( <= ( + T2 496 )  ( + T9 441 ) ) ( <= ( + T9 472 )( + T2 459 ) ) )
(or ( <= ( + T2 534 )  ( + T9 472 ) ) ( <= ( + T9 551 )( + T2 496 ) ) )
(or ( <= ( + T2 77 ) T10 ) ( <= ( + T10 2 ) T2 ) )
(or ( <= ( + T2 93 )  ( + T10 2 ) ) ( <= ( + T10 91 )( + T2 77 ) ) )
(or ( <= ( + T2 178 )  ( + T10 91 ) ) ( <= ( + T10 106 )( + T2 93 ) ) )
(or ( <= ( + T2 213 )  ( + T10 106 ) ) ( <= ( + T10 145 )( + T2 178 ) ) )
(or ( <= ( + T2 277 )  ( + T10 145 ) ) ( <= ( + T10 174 )( + T2 213 ) ) )
(or ( <= ( + T2 298 )  ( + T10 174 ) ) ( <= ( + T10 267 )( + T2 277 ) ) )
(or ( <= ( + T2 311 )  ( + T10 267 ) ) ( <= ( + T10 359 )( + T2 298 ) ) )
(or ( <= ( + T2 383 )  ( + T10 359 ) ) ( <= ( + T10 399 )( + T2 311 ) ) )
(or ( <= ( + T2 440 )  ( + T10 399 ) ) ( <= ( + T10 498 )( + T2 383 ) ) )
(or ( <= ( + T2 459 )  ( + T10 498 ) ) ( <= ( + T10 553 )( + T2 440 ) ) )
(or ( <= ( + T2 496 )  ( + T10 553 ) ) ( <= ( + T10 576 )( + T2 459 ) ) )
(or ( <= ( + T2 534 )  ( + T10 576 ) ) ( <= ( + T10 624 )( + T2 496 ) ) )
(or ( <= ( + T3 44 ) T4 ) ( <= ( + T4 49 ) T3 ) )
(or ( <= ( + T3 46 )  ( + T4 49 ) ) ( <= ( + T4 63 )( + T3 44 ) ) )
(or ( <= ( + T3 58 )  ( + T4 63 ) ) ( <= ( + T4 145 )( + T3 46 ) ) )
(or ( <= ( + T3 82 )  ( + T4 145 ) ) ( <= ( + T4 149 )( + T3 58 ) ) )
(or ( <= ( + T3 154 )  ( + T4 149 ) ) ( <= ( + T4 220 )( + T3 82 ) ) )
(or ( <= ( + T3 182 )  ( + T4 220 ) ) ( <= ( + T4 250 )( + T3 154 ) ) )
(or ( <= ( + T3 265 )  ( + T4 250 ) ) ( <= ( + T4 277 )( + T3 182 ) ) )
(or ( <= ( + T3 305 )  ( + T4 277 ) ) ( <= ( + T4 377 )( + T3 265 ) ) )
(or ( <= ( + T3 343 )  ( + T4 377 ) ) ( <= ( + T4 422 )( + T3 305 ) ) )
(or ( <= ( + T3 380 )  ( + T4 422 ) ) ( <= ( + T4 485 )( + T3 343 ) ) )
(or ( <= ( + T3 463 )  ( + T4 485 ) ) ( <= ( + T4 519 )( + T3 380 ) ) )
(or ( <= ( + T3 493 )  ( + T4 519 ) ) ( <= ( + T4 579 )( + T3 463 ) ) )
(or ( <= ( + T3 44 ) T5 ) ( <= ( + T5 35 ) T3 ) )
(or ( <= ( + T3 46 )  ( + T5 35 ) ) ( <= ( + T5 133 )( + T3 44 ) ) )
(or ( <= ( + T3 58 )  ( + T5 133 ) ) ( <= ( + T5 216 )( + T3 46 ) ) )
(or ( <= ( + T3 82 )  ( + T5 216 ) ) ( <= ( + T5 307 )( + T3 58 ) ) )
(or ( <= ( + T3 154 )  ( + T5 307 ) ) ( <= ( + T5 323 )( + T3 82 ) ) )
(or ( <= ( + T3 182 )  ( + T5 323 ) ) ( <= ( + T5 343 )( + T3 154 ) ) )
(or ( <= ( + T3 265 )  ( + T5 343 ) ) ( <= ( + T5 423 )( + T3 182 ) ) )
(or ( <= ( + T3 305 )  ( + T5 423 ) ) ( <= ( + T5 435 )( + T3 265 ) ) )
(or ( <= ( + T3 343 )  ( + T5 435 ) ) ( <= ( + T5 508 )( + T3 305 ) ) )
(or ( <= ( + T3 380 )  ( + T5 508 ) ) ( <= ( + T5 599 )( + T3 343 ) ) )
(or ( <= ( + T3 463 )  ( + T5 599 ) ) ( <= ( + T5 634 )( + T3 380 ) ) )
(or ( <= ( + T3 493 )  ( + T5 634 ) ) ( <= ( + T5 678 )( + T3 463 ) ) )
(or ( <= ( + T3 44 ) T6 ) ( <= ( + T6 71 ) T3 ) )
(or ( <= ( + T3 46 )  ( + T6 71 ) ) ( <= ( + T6 88 )( + T3 44 ) ) )
(or ( <= ( + T3 58 )  ( + T6 88 ) ) ( <= ( + T6 171 )( + T3 46 ) ) )
(or ( <= ( + T3 82 )  ( + T6 171 ) ) ( <= ( + T6 179 )( + T3 58 ) ) )
(or ( <= ( + T3 154 )  ( + T6 179 ) ) ( <= ( + T6 185 )( + T3 82 ) ) )
(or ( <= ( + T3 182 )  ( + T6 185 ) ) ( <= ( + T6 202 )( + T3 154 ) ) )
(or ( <= ( + T3 265 )  ( + T6 202 ) ) ( <= ( + T6 291 )( + T3 182 ) ) )
(or ( <= ( + T3 305 )  ( + T6 291 ) ) ( <= ( + T6 297 )( + T3 265 ) ) )
(or ( <= ( + T3 343 )  ( + T6 297 ) ) ( <= ( + T6 327 )( + T3 305 ) ) )
(or ( <= ( + T3 380 )  ( + T6 327 ) ) ( <= ( + T6 349 )( + T3 343 ) ) )
(or ( <= ( + T3 463 )  ( + T6 349 ) ) ( <= ( + T6 358 )( + T3 380 ) ) )
(or ( <= ( + T3 493 )  ( + T6 358 ) ) ( <= ( + T6 411 )( + T3 463 ) ) )
(or ( <= ( + T3 44 ) T7 ) ( <= ( + T7 51 ) T3 ) )
(or ( <= ( + T3 46 )  ( + T7 51 ) ) ( <= ( + T7 139 )( + T3 44 ) ) )
(or ( <= ( + T3 58 )  ( + T7 139 ) ) ( <= ( + T7 143 )( + T3 46 ) ) )
(or ( <= ( + T3 82 )  ( + T7 143 ) ) ( <= ( + T7 190 )( + T3 58 ) ) )
(or ( <= ( + T3 154 )  ( + T7 190 ) ) ( <= ( + T7 240 )( + T3 82 ) ) )
(or ( <= ( + T3 182 )  ( + T7 240 ) ) ( <= ( + T7 329 )( + T3 154 ) ) )
(or ( <= ( + T3 265 )  ( + T7 329 ) ) ( <= ( + T7 335 )( + T3 182 ) ) )
(or ( <= ( + T3 305 )  ( + T7 335 ) ) ( <= ( + T7 372 )( + T3 265 ) ) )
(or ( <= ( + T3 343 )  ( + T7 372 ) ) ( <= ( + T7 458 )( + T3 305 ) ) )
(or ( <= ( + T3 380 )  ( + T7 458 ) ) ( <= ( + T7 499 )( + T3 343 ) ) )
(or ( <= ( + T3 463 )  ( + T7 499 ) ) ( <= ( + T7 526 )( + T3 380 ) ) )
(or ( <= ( + T3 493 )  ( + T7 526 ) ) ( <= ( + T7 579 )( + T3 463 ) ) )
(or ( <= ( + T3 44 ) T8 ) ( <= ( + T8 60 ) T3 ) )
(or ( <= ( + T3 46 )  ( + T8 60 ) ) ( <= ( + T8 67 )( + T3 44 ) ) )
(or ( <= ( + T3 58 )  ( + T8 67 ) ) ( <= ( + T8 131 )( + T3 46 ) ) )
(or ( <= ( + T3 82 )  ( + T8 131 ) ) ( <= ( + T8 163 )( + T3 58 ) ) )
(or ( <= ( + T3 154 )  ( + T8 163 ) ) ( <= ( + T8 260 )( + T3 82 ) ) )
(or ( <= ( + T3 182 )  ( + T8 260 ) ) ( <= ( + T8 359 )( + T3 154 ) ) )
(or ( <= ( + T3 265 )  ( + T8 359 ) ) ( <= ( + T8 386 )( + T3 182 ) ) )
(or ( <= ( + T3 305 )  ( + T8 386 ) ) ( <= ( + T8 453 )( + T3 265 ) ) )
(or ( <= ( + T3 343 )  ( + T8 453 ) ) ( <= ( + T8 520 )( + T3 305 ) ) )
(or ( <= ( + T3 380 )  ( + T8 520 ) ) ( <= ( + T8 529 )( + T3 343 ) ) )
(or ( <= ( + T3 463 )  ( + T8 529 ) ) ( <= ( + T8 603 )( + T3 380 ) ) )
(or ( <= ( + T3 493 )  ( + T8 603 ) ) ( <= ( + T8 627 )( + T3 463 ) ) )
(or ( <= ( + T3 44 ) T9 ) ( <= ( + T9 78 ) T3 ) )
(or ( <= ( + T3 46 )  ( + T9 78 ) ) ( <= ( + T9 92 )( + T3 44 ) ) )
(or ( <= ( + T3 58 )  ( + T9 92 ) ) ( <= ( + T9 122 )( + T3 46 ) ) )
(or ( <= ( + T3 82 )  ( + T9 122 ) ) ( <= ( + T9 129 )( + T3 58 ) ) )
(or ( <= ( + T3 154 )  ( + T9 129 ) ) ( <= ( + T9 164 )( + T3 82 ) ) )
(or ( <= ( + T3 182 )  ( + T9 164 ) ) ( <= ( + T9 254 )( + T3 154 ) ) )
(or ( <= ( + T3 265 )  ( + T9 254 ) ) ( <= ( + T9 265 )( + T3 182 ) ) )
(or ( <= ( + T3 305 )  ( + T9 265 ) ) ( <= ( + T9 350 )( + T3 265 ) ) )
(or ( <= ( + T3 343 )  ( + T9 350 ) ) ( <= ( + T9 427 )( + T3 305 ) ) )
(or ( <= ( + T3 380 )  ( + T9 427 ) ) ( <= ( + T9 441 )( + T3 343 ) ) )
(or ( <= ( + T3 463 )  ( + T9 441 ) ) ( <= ( + T9 472 )( + T3 380 ) ) )
(or ( <= ( + T3 493 )  ( + T9 472 ) ) ( <= ( + T9 551 )( + T3 463 ) ) )
(or ( <= ( + T3 44 ) T10 ) ( <= ( + T10 2 ) T3 ) )
(or ( <= ( + T3 46 )  ( + T10 2 ) ) ( <= ( + T10 91 )( + T3 44 ) ) )
(or ( <= ( + T3 58 )  ( + T10 91 ) ) ( <= ( + T10 106 )( + T3 46 ) ) )
(or ( <= ( + T3 82 )  ( + T10 106 ) ) ( <= ( + T10 145 )( + T3 58 ) ) )
(or ( <= ( + T3 154 )  ( + T10 145 ) ) ( <= ( + T10 174 )( + T3 82 ) ) )
(or ( <= ( + T3 182 )  ( + T10 174 ) ) ( <= ( + T10 267 )( + T3 154 ) ) )
(or ( <= ( + T3 265 )  ( + T10 267 ) ) ( <= ( + T10 359 )( + T3 182 ) ) )
(or ( <= ( + T3 305 )  ( + T10 359 ) ) ( <= ( + T10 399 )( + T3 265 ) ) )
(or ( <= ( + T3 343 )  ( + T10 399 ) ) ( <= ( + T10 498 )( + T3 305 ) ) )
(or ( <= ( + T3 380 )  ( + T10 498 ) ) ( <= ( + T10 553 )( + T3 343 ) ) )
(or ( <= ( + T3 463 )  ( + T10 553 ) ) ( <= ( + T10 576 )( + T3 380 ) ) )
(or ( <= ( + T3 493 )  ( + T10 576 ) ) ( <= ( + T10 624 )( + T3 463 ) ) )
(or ( <= ( + T4 49 ) T5 ) ( <= ( + T5 35 ) T4 ) )
(or ( <= ( + T4 63 )  ( + T5 35 ) ) ( <= ( + T5 133 )( + T4 49 ) ) )
(or ( <= ( + T4 145 )  ( + T5 133 ) ) ( <= ( + T5 216 )( + T4 63 ) ) )
(or ( <= ( + T4 149 )  ( + T5 216 ) ) ( <= ( + T5 307 )( + T4 145 ) ) )
(or ( <= ( + T4 220 )  ( + T5 307 ) ) ( <= ( + T5 323 )( + T4 149 ) ) )
(or ( <= ( + T4 250 )  ( + T5 323 ) ) ( <= ( + T5 343 )( + T4 220 ) ) )
(or ( <= ( + T4 277 )  ( + T5 343 ) ) ( <= ( + T5 423 )( + T4 250 ) ) )
(or ( <= ( + T4 377 )  ( + T5 423 ) ) ( <= ( + T5 435 )( + T4 277 ) ) )
(or ( <= ( + T4 422 )  ( + T5 435 ) ) ( <= ( + T5 508 )( + T4 377 ) ) )
(or ( <= ( + T4 485 )  ( + T5 508 ) ) ( <= ( + T5 599 )( + T4 422 ) ) )
(or ( <= ( + T4 519 )  ( + T5 599 ) ) ( <= ( + T5 634 )( + T4 485 ) ) )
(or ( <= ( + T4 579 )  ( + T5 634 ) ) ( <= ( + T5 678 )( + T4 519 ) ) )
(or ( <= ( + T4 49 ) T6 ) ( <= ( + T6 71 ) T4 ) )
(or ( <= ( + T4 63 )  ( + T6 71 ) ) ( <= ( + T6 88 )( + T4 49 ) ) )
(or ( <= ( + T4 145 )  ( + T6 88 ) ) ( <= ( + T6 171 )( + T4 63 ) ) )
(or ( <= ( + T4 149 )  ( + T6 171 ) ) ( <= ( + T6 179 )( + T4 145 ) ) )
(or ( <= ( + T4 220 )  ( + T6 179 ) ) ( <= ( + T6 185 )( + T4 149 ) ) )
(or ( <= ( + T4 250 )  ( + T6 185 ) ) ( <= ( + T6 202 )( + T4 220 ) ) )
(or ( <= ( + T4 277 )  ( + T6 202 ) ) ( <= ( + T6 291 )( + T4 250 ) ) )
(or ( <= ( + T4 377 )  ( + T6 291 ) ) ( <= ( + T6 297 )( + T4 277 ) ) )
(or ( <= ( + T4 422 )  ( + T6 297 ) ) ( <= ( + T6 327 )( + T4 377 ) ) )
(or ( <= ( + T4 485 )  ( + T6 327 ) ) ( <= ( + T6 349 )( + T4 422 ) ) )
(or ( <= ( + T4 519 )  ( + T6 349 ) ) ( <= ( + T6 358 )( + T4 485 ) ) )
(or ( <= ( + T4 579 )  ( + T6 358 ) ) ( <= ( + T6 411 )( + T4 519 ) ) )
(or ( <= ( + T4 49 ) T7 ) ( <= ( + T7 51 ) T4 ) )
(or ( <= ( + T4 63 )  ( + T7 51 ) ) ( <= ( + T7 139 )( + T4 49 ) ) )
(or ( <= ( + T4 145 )  ( + T7 139 ) ) ( <= ( + T7 143 )( + T4 63 ) ) )
(or ( <= ( + T4 149 )  ( + T7 143 ) ) ( <= ( + T7 190 )( + T4 145 ) ) )
(or ( <= ( + T4 220 )  ( + T7 190 ) ) ( <= ( + T7 240 )( + T4 149 ) ) )
(or ( <= ( + T4 250 )  ( + T7 240 ) ) ( <= ( + T7 329 )( + T4 220 ) ) )
(or ( <= ( + T4 277 )  ( + T7 329 ) ) ( <= ( + T7 335 )( + T4 250 ) ) )
(or ( <= ( + T4 377 )  ( + T7 335 ) ) ( <= ( + T7 372 )( + T4 277 ) ) )
(or ( <= ( + T4 422 )  ( + T7 372 ) ) ( <= ( + T7 458 )( + T4 377 ) ) )
(or ( <= ( + T4 485 )  ( + T7 458 ) ) ( <= ( + T7 499 )( + T4 422 ) ) )
(or ( <= ( + T4 519 )  ( + T7 499 ) ) ( <= ( + T7 526 )( + T4 485 ) ) )
(or ( <= ( + T4 579 )  ( + T7 526 ) ) ( <= ( + T7 579 )( + T4 519 ) ) )
(or ( <= ( + T4 49 ) T8 ) ( <= ( + T8 60 ) T4 ) )
(or ( <= ( + T4 63 )  ( + T8 60 ) ) ( <= ( + T8 67 )( + T4 49 ) ) )
(or ( <= ( + T4 145 )  ( + T8 67 ) ) ( <= ( + T8 131 )( + T4 63 ) ) )
(or ( <= ( + T4 149 )  ( + T8 131 ) ) ( <= ( + T8 163 )( + T4 145 ) ) )
(or ( <= ( + T4 220 )  ( + T8 163 ) ) ( <= ( + T8 260 )( + T4 149 ) ) )
(or ( <= ( + T4 250 )  ( + T8 260 ) ) ( <= ( + T8 359 )( + T4 220 ) ) )
(or ( <= ( + T4 277 )  ( + T8 359 ) ) ( <= ( + T8 386 )( + T4 250 ) ) )
(or ( <= ( + T4 377 )  ( + T8 386 ) ) ( <= ( + T8 453 )( + T4 277 ) ) )
(or ( <= ( + T4 422 )  ( + T8 453 ) ) ( <= ( + T8 520 )( + T4 377 ) ) )
(or ( <= ( + T4 485 )  ( + T8 520 ) ) ( <= ( + T8 529 )( + T4 422 ) ) )
(or ( <= ( + T4 519 )  ( + T8 529 ) ) ( <= ( + T8 603 )( + T4 485 ) ) )
(or ( <= ( + T4 579 )  ( + T8 603 ) ) ( <= ( + T8 627 )( + T4 519 ) ) )
(or ( <= ( + T4 49 ) T9 ) ( <= ( + T9 78 ) T4 ) )
(or ( <= ( + T4 63 )  ( + T9 78 ) ) ( <= ( + T9 92 )( + T4 49 ) ) )
(or ( <= ( + T4 145 )  ( + T9 92 ) ) ( <= ( + T9 122 )( + T4 63 ) ) )
(or ( <= ( + T4 149 )  ( + T9 122 ) ) ( <= ( + T9 129 )( + T4 145 ) ) )
(or ( <= ( + T4 220 )  ( + T9 129 ) ) ( <= ( + T9 164 )( + T4 149 ) ) )
(or ( <= ( + T4 250 )  ( + T9 164 ) ) ( <= ( + T9 254 )( + T4 220 ) ) )
(or ( <= ( + T4 277 )  ( + T9 254 ) ) ( <= ( + T9 265 )( + T4 250 ) ) )
(or ( <= ( + T4 377 )  ( + T9 265 ) ) ( <= ( + T9 350 )( + T4 277 ) ) )
(or ( <= ( + T4 422 )  ( + T9 350 ) ) ( <= ( + T9 427 )( + T4 377 ) ) )
(or ( <= ( + T4 485 )  ( + T9 427 ) ) ( <= ( + T9 441 )( + T4 422 ) ) )
(or ( <= ( + T4 519 )  ( + T9 441 ) ) ( <= ( + T9 472 )( + T4 485 ) ) )
(or ( <= ( + T4 579 )  ( + T9 472 ) ) ( <= ( + T9 551 )( + T4 519 ) ) )
(or ( <= ( + T4 49 ) T10 ) ( <= ( + T10 2 ) T4 ) )
(or ( <= ( + T4 63 )  ( + T10 2 ) ) ( <= ( + T10 91 )( + T4 49 ) ) )
(or ( <= ( + T4 145 )  ( + T10 91 ) ) ( <= ( + T10 106 )( + T4 63 ) ) )
(or ( <= ( + T4 149 )  ( + T10 106 ) ) ( <= ( + T10 145 )( + T4 145 ) ) )
(or ( <= ( + T4 220 )  ( + T10 145 ) ) ( <= ( + T10 174 )( + T4 149 ) ) )
(or ( <= ( + T4 250 )  ( + T10 174 ) ) ( <= ( + T10 267 )( + T4 220 ) ) )
(or ( <= ( + T4 277 )  ( + T10 267 ) ) ( <= ( + T10 359 )( + T4 250 ) ) )
(or ( <= ( + T4 377 )  ( + T10 359 ) ) ( <= ( + T10 399 )( + T4 277 ) ) )
(or ( <= ( + T4 422 )  ( + T10 399 ) ) ( <= ( + T10 498 )( + T4 377 ) ) )
(or ( <= ( + T4 485 )  ( + T10 498 ) ) ( <= ( + T10 553 )( + T4 422 ) ) )
(or ( <= ( + T4 519 )  ( + T10 553 ) ) ( <= ( + T10 576 )( + T4 485 ) ) )
(or ( <= ( + T4 579 )  ( + T10 576 ) ) ( <= ( + T10 624 )( + T4 519 ) ) )
(or ( <= ( + T5 35 ) T6 ) ( <= ( + T6 71 ) T5 ) )
(or ( <= ( + T5 133 )  ( + T6 71 ) ) ( <= ( + T6 88 )( + T5 35 ) ) )
(or ( <= ( + T5 216 )  ( + T6 88 ) ) ( <= ( + T6 171 )( + T5 133 ) ) )
(or ( <= ( + T5 307 )  ( + T6 171 ) ) ( <= ( + T6 179 )( + T5 216 ) ) )
(or ( <= ( + T5 323 )  ( + T6 179 ) ) ( <= ( + T6 185 )( + T5 307 ) ) )
(or ( <= ( + T5 343 )  ( + T6 185 ) ) ( <= ( + T6 202 )( + T5 323 ) ) )
(or ( <= ( + T5 423 )  ( + T6 202 ) ) ( <= ( + T6 291 )( + T5 343 ) ) )
(or ( <= ( + T5 435 )  ( + T6 291 ) ) ( <= ( + T6 297 )( + T5 423 ) ) )
(or ( <= ( + T5 508 )  ( + T6 297 ) ) ( <= ( + T6 327 )( + T5 435 ) ) )
(or ( <= ( + T5 599 )  ( + T6 327 ) ) ( <= ( + T6 349 )( + T5 508 ) ) )
(or ( <= ( + T5 634 )  ( + T6 349 ) ) ( <= ( + T6 358 )( + T5 599 ) ) )
(or ( <= ( + T5 678 )  ( + T6 358 ) ) ( <= ( + T6 411 )( + T5 634 ) ) )
(or ( <= ( + T5 35 ) T7 ) ( <= ( + T7 51 ) T5 ) )
(or ( <= ( + T5 133 )  ( + T7 51 ) ) ( <= ( + T7 139 )( + T5 35 ) ) )
(or ( <= ( + T5 216 )  ( + T7 139 ) ) ( <= ( + T7 143 )( + T5 133 ) ) )
(or ( <= ( + T5 307 )  ( + T7 143 ) ) ( <= ( + T7 190 )( + T5 216 ) ) )
(or ( <= ( + T5 323 )  ( + T7 190 ) ) ( <= ( + T7 240 )( + T5 307 ) ) )
(or ( <= ( + T5 343 )  ( + T7 240 ) ) ( <= ( + T7 329 )( + T5 323 ) ) )
(or ( <= ( + T5 423 )  ( + T7 329 ) ) ( <= ( + T7 335 )( + T5 343 ) ) )
(or ( <= ( + T5 435 )  ( + T7 335 ) ) ( <= ( + T7 372 )( + T5 423 ) ) )
(or ( <= ( + T5 508 )  ( + T7 372 ) ) ( <= ( + T7 458 )( + T5 435 ) ) )
(or ( <= ( + T5 599 )  ( + T7 458 ) ) ( <= ( + T7 499 )( + T5 508 ) ) )
(or ( <= ( + T5 634 )  ( + T7 499 ) ) ( <= ( + T7 526 )( + T5 599 ) ) )
(or ( <= ( + T5 678 )  ( + T7 526 ) ) ( <= ( + T7 579 )( + T5 634 ) ) )
(or ( <= ( + T5 35 ) T8 ) ( <= ( + T8 60 ) T5 ) )
(or ( <= ( + T5 133 )  ( + T8 60 ) ) ( <= ( + T8 67 )( + T5 35 ) ) )
(or ( <= ( + T5 216 )  ( + T8 67 ) ) ( <= ( + T8 131 )( + T5 133 ) ) )
(or ( <= ( + T5 307 )  ( + T8 131 ) ) ( <= ( + T8 163 )( + T5 216 ) ) )
(or ( <= ( + T5 323 )  ( + T8 163 ) ) ( <= ( + T8 260 )( + T5 307 ) ) )
(or ( <= ( + T5 343 )  ( + T8 260 ) ) ( <= ( + T8 359 )( + T5 323 ) ) )
(or ( <= ( + T5 423 )  ( + T8 359 ) ) ( <= ( + T8 386 )( + T5 343 ) ) )
(or ( <= ( + T5 435 )  ( + T8 386 ) ) ( <= ( + T8 453 )( + T5 423 ) ) )
(or ( <= ( + T5 508 )  ( + T8 453 ) ) ( <= ( + T8 520 )( + T5 435 ) ) )
(or ( <= ( + T5 599 )  ( + T8 520 ) ) ( <= ( + T8 529 )( + T5 508 ) ) )
(or ( <= ( + T5 634 )  ( + T8 529 ) ) ( <= ( + T8 603 )( + T5 599 ) ) )
(or ( <= ( + T5 678 )  ( + T8 603 ) ) ( <= ( + T8 627 )( + T5 634 ) ) )
(or ( <= ( + T5 35 ) T9 ) ( <= ( + T9 78 ) T5 ) )
(or ( <= ( + T5 133 )  ( + T9 78 ) ) ( <= ( + T9 92 )( + T5 35 ) ) )
(or ( <= ( + T5 216 )  ( + T9 92 ) ) ( <= ( + T9 122 )( + T5 133 ) ) )
(or ( <= ( + T5 307 )  ( + T9 122 ) ) ( <= ( + T9 129 )( + T5 216 ) ) )
(or ( <= ( + T5 323 )  ( + T9 129 ) ) ( <= ( + T9 164 )( + T5 307 ) ) )
(or ( <= ( + T5 343 )  ( + T9 164 ) ) ( <= ( + T9 254 )( + T5 323 ) ) )
(or ( <= ( + T5 423 )  ( + T9 254 ) ) ( <= ( + T9 265 )( + T5 343 ) ) )
(or ( <= ( + T5 435 )  ( + T9 265 ) ) ( <= ( + T9 350 )( + T5 423 ) ) )
(or ( <= ( + T5 508 )  ( + T9 350 ) ) ( <= ( + T9 427 )( + T5 435 ) ) )
(or ( <= ( + T5 599 )  ( + T9 427 ) ) ( <= ( + T9 441 )( + T5 508 ) ) )
(or ( <= ( + T5 634 )  ( + T9 441 ) ) ( <= ( + T9 472 )( + T5 599 ) ) )
(or ( <= ( + T5 678 )  ( + T9 472 ) ) ( <= ( + T9 551 )( + T5 634 ) ) )
(or ( <= ( + T5 35 ) T10 ) ( <= ( + T10 2 ) T5 ) )
(or ( <= ( + T5 133 )  ( + T10 2 ) ) ( <= ( + T10 91 )( + T5 35 ) ) )
(or ( <= ( + T5 216 )  ( + T10 91 ) ) ( <= ( + T10 106 )( + T5 133 ) ) )
(or ( <= ( + T5 307 )  ( + T10 106 ) ) ( <= ( + T10 145 )( + T5 216 ) ) )
(or ( <= ( + T5 323 )  ( + T10 145 ) ) ( <= ( + T10 174 )( + T5 307 ) ) )
(or ( <= ( + T5 343 )  ( + T10 174 ) ) ( <= ( + T10 267 )( + T5 323 ) ) )
(or ( <= ( + T5 423 )  ( + T10 267 ) ) ( <= ( + T10 359 )( + T5 343 ) ) )
(or ( <= ( + T5 435 )  ( + T10 359 ) ) ( <= ( + T10 399 )( + T5 423 ) ) )
(or ( <= ( + T5 508 )  ( + T10 399 ) ) ( <= ( + T10 498 )( + T5 435 ) ) )
(or ( <= ( + T5 599 )  ( + T10 498 ) ) ( <= ( + T10 553 )( + T5 508 ) ) )
(or ( <= ( + T5 634 )  ( + T10 553 ) ) ( <= ( + T10 576 )( + T5 599 ) ) )
(or ( <= ( + T5 678 )  ( + T10 576 ) ) ( <= ( + T10 624 )( + T5 634 ) ) )
(or ( <= ( + T6 71 ) T7 ) ( <= ( + T7 51 ) T6 ) )
(or ( <= ( + T6 88 )  ( + T7 51 ) ) ( <= ( + T7 139 )( + T6 71 ) ) )
(or ( <= ( + T6 171 )  ( + T7 139 ) ) ( <= ( + T7 143 )( + T6 88 ) ) )
(or ( <= ( + T6 179 )  ( + T7 143 ) ) ( <= ( + T7 190 )( + T6 171 ) ) )
(or ( <= ( + T6 185 )  ( + T7 190 ) ) ( <= ( + T7 240 )( + T6 179 ) ) )
(or ( <= ( + T6 202 )  ( + T7 240 ) ) ( <= ( + T7 329 )( + T6 185 ) ) )
(or ( <= ( + T6 291 )  ( + T7 329 ) ) ( <= ( + T7 335 )( + T6 202 ) ) )
(or ( <= ( + T6 297 )  ( + T7 335 ) ) ( <= ( + T7 372 )( + T6 291 ) ) )
(or ( <= ( + T6 327 )  ( + T7 372 ) ) ( <= ( + T7 458 )( + T6 297 ) ) )
(or ( <= ( + T6 349 )  ( + T7 458 ) ) ( <= ( + T7 499 )( + T6 327 ) ) )
(or ( <= ( + T6 358 )  ( + T7 499 ) ) ( <= ( + T7 526 )( + T6 349 ) ) )
(or ( <= ( + T6 411 )  ( + T7 526 ) ) ( <= ( + T7 579 )( + T6 358 ) ) )
(or ( <= ( + T6 71 ) T8 ) ( <= ( + T8 60 ) T6 ) )
(or ( <= ( + T6 88 )  ( + T8 60 ) ) ( <= ( + T8 67 )( + T6 71 ) ) )
(or ( <= ( + T6 171 )  ( + T8 67 ) ) ( <= ( + T8 131 )( + T6 88 ) ) )
(or ( <= ( + T6 179 )  ( + T8 131 ) ) ( <= ( + T8 163 )( + T6 171 ) ) )
(or ( <= ( + T6 185 )  ( + T8 163 ) ) ( <= ( + T8 260 )( + T6 179 ) ) )
(or ( <= ( + T6 202 )  ( + T8 260 ) ) ( <= ( + T8 359 )( + T6 185 ) ) )
(or ( <= ( + T6 291 )  ( + T8 359 ) ) ( <= ( + T8 386 )( + T6 202 ) ) )
(or ( <= ( + T6 297 )  ( + T8 386 ) ) ( <= ( + T8 453 )( + T6 291 ) ) )
(or ( <= ( + T6 327 )  ( + T8 453 ) ) ( <= ( + T8 520 )( + T6 297 ) ) )
(or ( <= ( + T6 349 )  ( + T8 520 ) ) ( <= ( + T8 529 )( + T6 327 ) ) )
(or ( <= ( + T6 358 )  ( + T8 529 ) ) ( <= ( + T8 603 )( + T6 349 ) ) )
(or ( <= ( + T6 411 )  ( + T8 603 ) ) ( <= ( + T8 627 )( + T6 358 ) ) )
(or ( <= ( + T6 71 ) T9 ) ( <= ( + T9 78 ) T6 ) )
(or ( <= ( + T6 88 )  ( + T9 78 ) ) ( <= ( + T9 92 )( + T6 71 ) ) )
(or ( <= ( + T6 171 )  ( + T9 92 ) ) ( <= ( + T9 122 )( + T6 88 ) ) )
(or ( <= ( + T6 179 )  ( + T9 122 ) ) ( <= ( + T9 129 )( + T6 171 ) ) )
(or ( <= ( + T6 185 )  ( + T9 129 ) ) ( <= ( + T9 164 )( + T6 179 ) ) )
(or ( <= ( + T6 202 )  ( + T9 164 ) ) ( <= ( + T9 254 )( + T6 185 ) ) )
(or ( <= ( + T6 291 )  ( + T9 254 ) ) ( <= ( + T9 265 )( + T6 202 ) ) )
(or ( <= ( + T6 297 )  ( + T9 265 ) ) ( <= ( + T9 350 )( + T6 291 ) ) )
(or ( <= ( + T6 327 )  ( + T9 350 ) ) ( <= ( + T9 427 )( + T6 297 ) ) )
(or ( <= ( + T6 349 )  ( + T9 427 ) ) ( <= ( + T9 441 )( + T6 327 ) ) )
(or ( <= ( + T6 358 )  ( + T9 441 ) ) ( <= ( + T9 472 )( + T6 349 ) ) )
(or ( <= ( + T6 411 )  ( + T9 472 ) ) ( <= ( + T9 551 )( + T6 358 ) ) )
(or ( <= ( + T6 71 ) T10 ) ( <= ( + T10 2 ) T6 ) )
(or ( <= ( + T6 88 )  ( + T10 2 ) ) ( <= ( + T10 91 )( + T6 71 ) ) )
(or ( <= ( + T6 171 )  ( + T10 91 ) ) ( <= ( + T10 106 )( + T6 88 ) ) )
(or ( <= ( + T6 179 )  ( + T10 106 ) ) ( <= ( + T10 145 )( + T6 171 ) ) )
(or ( <= ( + T6 185 )  ( + T10 145 ) ) ( <= ( + T10 174 )( + T6 179 ) ) )
(or ( <= ( + T6 202 )  ( + T10 174 ) ) ( <= ( + T10 267 )( + T6 185 ) ) )
(or ( <= ( + T6 291 )  ( + T10 267 ) ) ( <= ( + T10 359 )( + T6 202 ) ) )
(or ( <= ( + T6 297 )  ( + T10 359 ) ) ( <= ( + T10 399 )( + T6 291 ) ) )
(or ( <= ( + T6 327 )  ( + T10 399 ) ) ( <= ( + T10 498 )( + T6 297 ) ) )
(or ( <= ( + T6 349 )  ( + T10 498 ) ) ( <= ( + T10 553 )( + T6 327 ) ) )
(or ( <= ( + T6 358 )  ( + T10 553 ) ) ( <= ( + T10 576 )( + T6 349 ) ) )
(or ( <= ( + T6 411 )  ( + T10 576 ) ) ( <= ( + T10 624 )( + T6 358 ) ) )
(or ( <= ( + T7 51 ) T8 ) ( <= ( + T8 60 ) T7 ) )
(or ( <= ( + T7 139 )  ( + T8 60 ) ) ( <= ( + T8 67 )( + T7 51 ) ) )
(or ( <= ( + T7 143 )  ( + T8 67 ) ) ( <= ( + T8 131 )( + T7 139 ) ) )
(or ( <= ( + T7 190 )  ( + T8 131 ) ) ( <= ( + T8 163 )( + T7 143 ) ) )
(or ( <= ( + T7 240 )  ( + T8 163 ) ) ( <= ( + T8 260 )( + T7 190 ) ) )
(or ( <= ( + T7 329 )  ( + T8 260 ) ) ( <= ( + T8 359 )( + T7 240 ) ) )
(or ( <= ( + T7 335 )  ( + T8 359 ) ) ( <= ( + T8 386 )( + T7 329 ) ) )
(or ( <= ( + T7 372 )  ( + T8 386 ) ) ( <= ( + T8 453 )( + T7 335 ) ) )
(or ( <= ( + T7 458 )  ( + T8 453 ) ) ( <= ( + T8 520 )( + T7 372 ) ) )
(or ( <= ( + T7 499 )  ( + T8 520 ) ) ( <= ( + T8 529 )( + T7 458 ) ) )
(or ( <= ( + T7 526 )  ( + T8 529 ) ) ( <= ( + T8 603 )( + T7 499 ) ) )
(or ( <= ( + T7 579 )  ( + T8 603 ) ) ( <= ( + T8 627 )( + T7 526 ) ) )
(or ( <= ( + T7 51 ) T9 ) ( <= ( + T9 78 ) T7 ) )
(or ( <= ( + T7 139 )  ( + T9 78 ) ) ( <= ( + T9 92 )( + T7 51 ) ) )
(or ( <= ( + T7 143 )  ( + T9 92 ) ) ( <= ( + T9 122 )( + T7 139 ) ) )
(or ( <= ( + T7 190 )  ( + T9 122 ) ) ( <= ( + T9 129 )( + T7 143 ) ) )
(or ( <= ( + T7 240 )  ( + T9 129 ) ) ( <= ( + T9 164 )( + T7 190 ) ) )
(or ( <= ( + T7 329 )  ( + T9 164 ) ) ( <= ( + T9 254 )( + T7 240 ) ) )
(or ( <= ( + T7 335 )  ( + T9 254 ) ) ( <= ( + T9 265 )( + T7 329 ) ) )
(or ( <= ( + T7 372 )  ( + T9 265 ) ) ( <= ( + T9 350 )( + T7 335 ) ) )
(or ( <= ( + T7 458 )  ( + T9 350 ) ) ( <= ( + T9 427 )( + T7 372 ) ) )
(or ( <= ( + T7 499 )  ( + T9 427 ) ) ( <= ( + T9 441 )( + T7 458 ) ) )
(or ( <= ( + T7 526 )  ( + T9 441 ) ) ( <= ( + T9 472 )( + T7 499 ) ) )
(or ( <= ( + T7 579 )  ( + T9 472 ) ) ( <= ( + T9 551 )( + T7 526 ) ) )
(or ( <= ( + T7 51 ) T10 ) ( <= ( + T10 2 ) T7 ) )
(or ( <= ( + T7 139 )  ( + T10 2 ) ) ( <= ( + T10 91 )( + T7 51 ) ) )
(or ( <= ( + T7 143 )  ( + T10 91 ) ) ( <= ( + T10 106 )( + T7 139 ) ) )
(or ( <= ( + T7 190 )  ( + T10 106 ) ) ( <= ( + T10 145 )( + T7 143 ) ) )
(or ( <= ( + T7 240 )  ( + T10 145 ) ) ( <= ( + T10 174 )( + T7 190 ) ) )
(or ( <= ( + T7 329 )  ( + T10 174 ) ) ( <= ( + T10 267 )( + T7 240 ) ) )
(or ( <= ( + T7 335 )  ( + T10 267 ) ) ( <= ( + T10 359 )( + T7 329 ) ) )
(or ( <= ( + T7 372 )  ( + T10 359 ) ) ( <= ( + T10 399 )( + T7 335 ) ) )
(or ( <= ( + T7 458 )  ( + T10 399 ) ) ( <= ( + T10 498 )( + T7 372 ) ) )
(or ( <= ( + T7 499 )  ( + T10 498 ) ) ( <= ( + T10 553 )( + T7 458 ) ) )
(or ( <= ( + T7 526 )  ( + T10 553 ) ) ( <= ( + T10 576 )( + T7 499 ) ) )
(or ( <= ( + T7 579 )  ( + T10 576 ) ) ( <= ( + T10 624 )( + T7 526 ) ) )
(or ( <= ( + T8 60 ) T9 ) ( <= ( + T9 78 ) T8 ) )
(or ( <= ( + T8 67 )  ( + T9 78 ) ) ( <= ( + T9 92 )( + T8 60 ) ) )
(or ( <= ( + T8 131 )  ( + T9 92 ) ) ( <= ( + T9 122 )( + T8 67 ) ) )
(or ( <= ( + T8 163 )  ( + T9 122 ) ) ( <= ( + T9 129 )( + T8 131 ) ) )
(or ( <= ( + T8 260 )  ( + T9 129 ) ) ( <= ( + T9 164 )( + T8 163 ) ) )
(or ( <= ( + T8 359 )  ( + T9 164 ) ) ( <= ( + T9 254 )( + T8 260 ) ) )
(or ( <= ( + T8 386 )  ( + T9 254 ) ) ( <= ( + T9 265 )( + T8 359 ) ) )
(or ( <= ( + T8 453 )  ( + T9 265 ) ) ( <= ( + T9 350 )( + T8 386 ) ) )
(or ( <= ( + T8 520 )  ( + T9 350 ) ) ( <= ( + T9 427 )( + T8 453 ) ) )
(or ( <= ( + T8 529 )  ( + T9 427 ) ) ( <= ( + T9 441 )( + T8 520 ) ) )
(or ( <= ( + T8 603 )  ( + T9 441 ) ) ( <= ( + T9 472 )( + T8 529 ) ) )
(or ( <= ( + T8 627 )  ( + T9 472 ) ) ( <= ( + T9 551 )( + T8 603 ) ) )
(or ( <= ( + T8 60 ) T10 ) ( <= ( + T10 2 ) T8 ) )
(or ( <= ( + T8 67 )  ( + T10 2 ) ) ( <= ( + T10 91 )( + T8 60 ) ) )
(or ( <= ( + T8 131 )  ( + T10 91 ) ) ( <= ( + T10 106 )( + T8 67 ) ) )
(or ( <= ( + T8 163 )  ( + T10 106 ) ) ( <= ( + T10 145 )( + T8 131 ) ) )
(or ( <= ( + T8 260 )  ( + T10 145 ) ) ( <= ( + T10 174 )( + T8 163 ) ) )
(or ( <= ( + T8 359 )  ( + T10 174 ) ) ( <= ( + T10 267 )( + T8 260 ) ) )
(or ( <= ( + T8 386 )  ( + T10 267 ) ) ( <= ( + T10 359 )( + T8 359 ) ) )
(or ( <= ( + T8 453 )  ( + T10 359 ) ) ( <= ( + T10 399 )( + T8 386 ) ) )
(or ( <= ( + T8 520 )  ( + T10 399 ) ) ( <= ( + T10 498 )( + T8 453 ) ) )
(or ( <= ( + T8 529 )  ( + T10 498 ) ) ( <= ( + T10 553 )( + T8 520 ) ) )
(or ( <= ( + T8 603 )  ( + T10 553 ) ) ( <= ( + T10 576 )( + T8 529 ) ) )
(or ( <= ( + T8 627 )  ( + T10 576 ) ) ( <= ( + T10 624 )( + T8 603 ) ) )
(or ( <= ( + T9 78 ) T10 ) ( <= ( + T10 2 ) T9 ) )
(or ( <= ( + T9 92 )  ( + T10 2 ) ) ( <= ( + T10 91 )( + T9 78 ) ) )
(or ( <= ( + T9 122 )  ( + T10 91 ) ) ( <= ( + T10 106 )( + T9 92 ) ) )
(or ( <= ( + T9 129 )  ( + T10 106 ) ) ( <= ( + T10 145 )( + T9 122 ) ) )
(or ( <= ( + T9 164 )  ( + T10 145 ) ) ( <= ( + T10 174 )( + T9 129 ) ) )
(or ( <= ( + T9 254 )  ( + T10 174 ) ) ( <= ( + T10 267 )( + T9 164 ) ) )
(or ( <= ( + T9 265 )  ( + T10 267 ) ) ( <= ( + T10 359 )( + T9 254 ) ) )
(or ( <= ( + T9 350 )  ( + T10 359 ) ) ( <= ( + T10 399 )( + T9 265 ) ) )
(or ( <= ( + T9 427 )  ( + T10 399 ) ) ( <= ( + T10 498 )( + T9 350 ) ) )
(or ( <= ( + T9 441 )  ( + T10 498 ) ) ( <= ( + T10 553 )( + T9 427 ) ) )
(or ( <= ( + T9 472 )  ( + T10 553 ) ) ( <= ( + T10 576 )( + T9 441 ) ) )
(or ( <= ( + T9 551 )  ( + T10 576 ) ) ( <= ( + T10 624 )( + T9 472 ) ) )
( <= ( + T1 594 ) Z)
( <= ( + T2 534 ) Z)
( <= ( + T3 493 ) Z)
( <= ( + T4 579 ) Z)
( <= ( + T5 678 ) Z)
( <= ( + T6 411 ) Z)
( <= ( + T7 579 ) Z)
( <= ( + T8 627 ) Z)
( <= ( + T9 551 ) Z)
( <= ( + T10 624 ) Z)
( >= T1 0 )
( >= T2 0 )
( >= T3 0 )
( >= T4 0 )
( >= T5 0 )
( >= T6 0 )
( >= T7 0 )
( >= T8 0 )
( >= T9 0 )
( >= T10 0 )
) )
)(=> $phi $goal))))